%%%%%%%%%%%%%%%%%%%%%%%%%%%%%%%%%%%%%%%%%%%%%%%%%%%%%%%%%%%%%%%%%%%%%%%%%
%FILE DATA:	Soccer Computational Problem for MiniZinc Models
%AUTHORS:	Robinson Duque, Alejandro Arbelaez, Juan Francisco Díaz
%CONTACT:  	robinson.duque@correounivalle.edu.co 
%LAST UPDATE:	May, 2018 
%ROUND ROBIN:2
%TEAMS:20
%PRESENT FIXTURE:20
%FIXTURES TO PLAY:18
%GAMES TO PLAY:180
%%%%%%%%%%%%%%%%%%%%%%%%%%%%%%%%%%%%%%%%%%%%%%%%%%%%%%%%%%%%%%%%%%%%%%%%%
%Number of teams:
n=20;

%For the purpose of our models, we offer two representations of the games to play, namely fixtures and games to play:

%Fixtures to play:
%fixtures=[|0,0,1,1,1,1,1,1,1,1,1,1,1,1,1,1,1,1,1,1
%|0,0,1,1,1,1,1,1,1,1,1,1,1,1,1,1,1,1,1,1
%|1,1,0,0,1,1,1,1,1,1,1,1,1,1,1,1,1,1,1,1
%|1,1,0,0,1,1,1,1,1,1,1,1,1,1,1,1,1,1,1,1
%|1,1,1,1,0,1,0,1,1,1,1,1,1,1,1,1,1,1,1,1
%|1,1,1,1,1,0,1,1,1,1,1,1,1,1,1,0,1,1,1,1
%|1,1,1,1,0,1,0,1,1,1,1,1,1,1,1,1,1,1,1,1
%|1,1,1,1,1,1,1,0,1,0,1,1,1,1,1,1,1,1,1,1
%|1,1,1,1,1,1,1,1,0,1,1,0,1,1,1,1,1,1,1,1
%|1,1,1,1,1,1,1,0,1,0,1,1,1,1,1,1,1,1,1,1
%|1,1,1,1,1,1,1,1,1,1,0,1,0,1,1,1,1,1,1,1
%|1,1,1,1,1,1,1,1,0,1,1,0,1,1,1,1,1,1,1,1
%|1,1,1,1,1,1,1,1,1,1,0,1,0,1,1,1,1,1,1,1
%|1,1,1,1,1,1,1,1,1,1,1,1,1,0,0,1,1,1,1,1
%|1,1,1,1,1,1,1,1,1,1,1,1,1,0,0,1,1,1,1,1
%|1,1,1,1,1,0,1,1,1,1,1,1,1,1,1,0,1,1,1,1
%|1,1,1,1,1,1,1,1,1,1,1,1,1,1,1,1,0,0,1,1
%|1,1,1,1,1,1,1,1,1,1,1,1,1,1,1,1,0,0,1,1
%|1,1,1,1,1,1,1,1,1,1,1,1,1,1,1,1,1,1,0,0
%|1,1,1,1,1,1,1,1,1,1,1,1,1,1,1,1,1,1,0,0|];

%Played Fixtures:
%PlayedFixtures=[|0,2,1,1,1,1,1,1,1,1,1,1,1,1,1,1,1,1,1,1
%|2,0,1,1,1,1,1,1,1,1,1,1,1,1,1,1,1,1,1,1
%|1,1,0,2,1,1,1,1,1,1,1,1,1,1,1,1,1,1,1,1
%|1,1,2,0,1,1,1,1,1,1,1,1,1,1,1,1,1,1,1,1
%|1,1,1,1,0,1,2,1,1,1,1,1,1,1,1,1,1,1,1,1
%|1,1,1,1,1,0,1,1,1,1,1,1,1,1,1,2,1,1,1,1
%|1,1,1,1,2,1,0,1,1,1,1,1,1,1,1,1,1,1,1,1
%|1,1,1,1,1,1,1,0,1,2,1,1,1,1,1,1,1,1,1,1
%|1,1,1,1,1,1,1,1,0,1,1,2,1,1,1,1,1,1,1,1
%|1,1,1,1,1,1,1,2,1,0,1,1,1,1,1,1,1,1,1,1
%|1,1,1,1,1,1,1,1,1,1,0,1,2,1,1,1,1,1,1,1
%|1,1,1,1,1,1,1,1,2,1,1,0,1,1,1,1,1,1,1,1
%|1,1,1,1,1,1,1,1,1,1,2,1,0,1,1,1,1,1,1,1
%|1,1,1,1,1,1,1,1,1,1,1,1,1,0,2,1,1,1,1,1
%|1,1,1,1,1,1,1,1,1,1,1,1,1,2,0,1,1,1,1,1
%|1,1,1,1,1,2,1,1,1,1,1,1,1,1,1,0,1,1,1,1
%|1,1,1,1,1,1,1,1,1,1,1,1,1,1,1,1,0,2,1,1
%|1,1,1,1,1,1,1,1,1,1,1,1,1,1,1,1,2,0,1,1
%|1,1,1,1,1,1,1,1,1,1,1,1,1,1,1,1,1,1,0,2
%|1,1,1,1,1,1,1,1,1,1,1,1,1,1,1,1,1,1,2,0|];

%Games to play:
games=[|3,1|3,2|4,1|4,2|5,1|5,2|5,3|5,4|6,1|6,2|6,3|6,4|6,5|7,1|7,2|7,3|7,4|7,6|8,1|8,2|8,3|8,4|8,5|8,6|8,7|9,1|9,2|9,3|9,4|9,5|9,6|9,7|9,8|10,1|10,2|10,3|10,4|10,5|10,6|10,7|10,9|11,1|11,2|11,3|11,4|11,5|11,6|11,7|11,8|11,9|11,10|12,1|12,2|12,3|12,4|12,5|12,6|12,7|12,8|12,10|12,11|13,1|13,2|13,3|13,4|13,5|13,6|13,7|13,8|13,9|13,10|13,12|14,1|14,2|14,3|14,4|14,5|14,6|14,7|14,8|14,9|14,10|14,11|14,12|14,13|15,1|15,2|15,3|15,4|15,5|15,6|15,7|15,8|15,9|15,10|15,11|15,12|15,13|16,1|16,2|16,3|16,4|16,5|16,7|16,8|16,9|16,10|16,11|16,12|16,13|16,14|16,15|17,1|17,2|17,3|17,4|17,5|17,6|17,7|17,8|17,9|17,10|17,11|17,12|17,13|17,14|17,15|17,16|18,1|18,2|18,3|18,4|18,5|18,6|18,7|18,8|18,9|18,10|18,11|18,12|18,13|18,14|18,15|18,16|19,1|19,2|19,3|19,4|19,5|19,6|19,7|19,8|19,9|19,10|19,11|19,12|19,13|19,14|19,15|19,16|19,17|19,18|20,1|20,2|20,3|20,4|20,5|20,6|20,7|20,8|20,9|20,10|20,11|20,12|20,13|20,14|20,15|20,16|20,17|20,18|];

%Played Games:
%PlayedGames=[|2,1|2,1|3,1|3,2|4,1|4,2|4,3|4,3|5,1|5,2|5,3|5,4|6,1|6,2|6,3|6,4|6,5|7,1|7,2|7,3|7,4|7,5|7,5|7,6|8,1|8,2|8,3|8,4|8,5|8,6|8,7|9,1|9,2|9,3|9,4|9,5|9,6|9,7|9,8|10,1|10,2|10,3|10,4|10,5|10,6|10,7|10,8|10,8|10,9|11,1|11,2|11,3|11,4|11,5|11,6|11,7|11,8|11,9|11,10|12,1|12,2|12,3|12,4|12,5|12,6|12,7|12,8|12,9|12,9|12,10|12,11|13,1|13,2|13,3|13,4|13,5|13,6|13,7|13,8|13,9|13,10|13,11|13,11|13,12|14,1|14,2|14,3|14,4|14,5|14,6|14,7|14,8|14,9|14,10|14,11|14,12|14,13|15,1|15,2|15,3|15,4|15,5|15,6|15,7|15,8|15,9|15,10|15,11|15,12|15,13|15,14|15,14|16,1|16,2|16,3|16,4|16,5|16,6|16,6|16,7|16,8|16,9|16,10|16,11|16,12|16,13|16,14|16,15|17,1|17,2|17,3|17,4|17,5|17,6|17,7|17,8|17,9|17,10|17,11|17,12|17,13|17,14|17,15|17,16|18,1|18,2|18,3|18,4|18,5|18,6|18,7|18,8|18,9|18,10|18,11|18,12|18,13|18,14|18,15|18,16|18,17|18,17|19,1|19,2|19,3|19,4|19,5|19,6|19,7|19,8|19,9|19,10|19,11|19,12|19,13|19,14|19,15|19,16|19,17|19,18|20,1|20,2|20,3|20,4|20,5|20,6|20,7|20,8|20,9|20,10|20,11|20,12|20,13|20,14|20,15|20,16|20,17|20,18|20,19|20,19|];

%Played Games - Win Results:
%% 0  0  0  0  0  0  0  1  0  0  0  0  0  0  0  0  0  1  0  0
%% 0  0  0  0  0  0  0  0  0  0  1  0  0  0  0  0  1  0  0  0
%% 1  1  0  0  0  0  0  1  0  0  0  0  1  1  0  1  0  0  0  0
%% 0  0  0  0  0  0  1  1  0  0  1  0  1  1  0  0  0  1  0  0
%% 0  0  0  0  0  0  0  0  1  0  0  0  1  0  0  1  0  0  0  0
%% 0  0  1  0  1  0  1  1  1  0  1  0  0  0  0  0  0  1  0  0
%% 1  0  0  0  0  0  0  0  0  0  0  0  0  0  0  1  1  0  0  0
%% 0  0  0  0  0  0  0  0  0  0  0  0  0  0  0  0  0  0  0  0
%% 0  0  0  0  0  0  0  0  0  0  0  0  0  0  0  0  1  0  0  0
%% 1  1  1  1  1  1  1  0  1  0  1  1  0  1  0  1  0  0  1  0
%% 0  0  0  0  0  0  0  0  0  0  0  0  0  0  0  0  0  0  0  0
%% 1  1  1  1  1  0  0  0  0  0  0  0  0  1  0  0  0  0  0  0
%% 0  0  0  0  0  0  0  0  0  0  0  0  0  0  0  0  0  1  0  0
%% 0  0  0  0  0  0  0  0  1  0  0  0  1  0  0  1  1  0  0  0
%% 0  1  0  1  1  1  0  1  1  1  1  1  0  0  0  0  1  0  1  0
%% 1  0  0  0  0  0  0  0  0  0  0  0  1  0  0  0  0  0  0  0
%% 0  0  0  0  0  0  0  1  0  0  0  0  0  0  0  0  0  0  0  0
%% 0  0  0  0  0  0  0  0  0  0  0  0  0  0  0  0  0  0  0  0
%% 0  1  1  0  0  0  1  0  1  0  0  1  1  0  0  0  1  0  0  2
%% 0  0  0  1  1  1  1  0  1  0  1  1  0  1  0  1  0  1  0  0
%Played Games - Tie Results:
%% 0  2  0  1  1  1  0  0  1  0  1  0  1  1  1  0  1  0  1  1
%% 2  0  0  1  1  1  1  1  1  0  0  0  1  1  0  1  0  1  0  1
%% 0  0  0  2  1  0  1  0  1  0  1  0  0  0  1  0  1  1  0  1
%% 1  1  2  0  1  1  0  0  1  0  0  0  0  0  0  1  1  0  1  0
%% 1  1  1  1  0  0  2  1  0  0  1  0  0  1  0  0  1  1  1  0
%% 1  1  0  1  0  0  0  0  0  0  0  1  1  1  0  2  1  0  1  0
%% 0  1  1  0  2  0  0  1  1  0  1  1  1  1  1  0  0  1  0  0
%% 0  1  0  0  1  0  1  0  1  2  1  1  1  1  0  1  0  1  1  1
%% 1  1  1  1  0  0  1  1  0  0  1  2  1  0  0  1  0  1  0  0
%% 0  0  0  0  0  0  0  2  0  0  0  0  1  0  0  0  1  1  0  1
%% 1  0  1  0  1  0  1  1  1  0  0  1  2  1  0  1  1  1  1  0
%% 0  0  0  0  0  1  1  1  2  0  1  0  1  0  0  1  1  1  0  0
%% 1  1  0  0  0  1  1  1  1  1  2  1  0  0  1  0  1  0  0  1
%% 1  1  0  0  1  1  1  1  0  0  1  0  0  0  2  0  0  1  1  0
%% 1  0  1  0  0  0  1  0  0  0  0  0  1  2  0  1  0  1  0  1
%% 0  1  0  1  0  2  0  1  1  0  1  1  0  0  1  0  1  1  1  0
%% 1  0  1  1  1  1  0  0  0  1  1  1  1  0  0  1  0  2  0  1
%% 0  1  1  0  1  0  1  1  1  1  1  1  0  1  1  1  2  0  1  0
%% 1  0  0  1  1  1  0  1  0  0  1  0  0  1  0  1  0  1  0  0
%% 1  1  1  0  0  0  0  1  0  1  0  0  1  0  1  0  1  0  0  0
%Played Games - Lose Results:
%% 0  0  1  0  0  0  1  0  0  1  0  1  0  0  0  1  0  0  0  0
%% 0  0  1  0  0  0  0  0  0  1  0  1  0  0  1  0  0  0  1  0
%% 0  0  0  0  0  1  0  0  0  1  0  1  0  0  0  0  0  0  1  0
%% 0  0  0  0  0  0  0  0  0  1  0  1  0  0  1  0  0  0  0  1
%% 0  0  0  0  0  1  0  0  0  1  0  1  0  0  1  0  0  0  0  1
%% 0  0  0  0  0  0  0  0  0  1  0  0  0  0  1  0  0  0  0  1
%% 0  0  0  1  0  1  0  0  0  1  0  0  0  0  0  0  0  0  1  1
%% 1  0  1  1  0  1  0  0  0  0  0  0  0  0  1  0  1  0  0  0
%% 0  0  0  0  1  1  0  0  0  1  0  0  0  1  1  0  0  0  1  1
%% 0  0  0  0  0  0  0  0  0  0  0  0  0  0  1  0  0  0  0  0
%% 0  1  0  1  0  1  0  0  0  1  0  0  0  0  1  0  0  0  0  1
%% 0  0  0  0  0  0  0  0  0  1  0  0  0  0  1  0  0  0  1  1
%% 0  0  1  1  1  0  0  0  0  0  0  0  0  1  0  1  0  0  1  0
%% 0  0  1  1  0  0  0  0  0  1  0  1  0  0  0  0  0  0  0  1
%% 0  0  0  0  0  0  0  0  0  0  0  0  0  0  0  0  0  0  0  0
%% 0  0  1  0  1  0  1  0  0  1  0  0  0  1  0  0  0  0  0  1
%% 0  1  0  0  0  0  1  0  1  0  0  0  0  1  1  0  0  0  1  0
%% 1  0  0  1  0  1  0  0  0  0  0  0  1  0  0  0  0  0  0  1
%% 0  0  0  0  0  0  0  0  0  1  0  0  0  0  1  0  0  0  0  0
%% 0  0  0  0  0  0  0  0  0  0  0  0  0  0  0  0  0  0  2  0

%%Initial points:
iPoints=[19, 19, 28, 28, 21, 31, 21, 14, 15, 45, 14, 28, 16, 23, 42, 18, 16, 15, 36, 38];

%%Initial positions:
%iPositions=[13, 12, 8, 7, 11, 5, 10, 20, 18, 1, 19, 6, 16, 9, 2, 14, 15, 17, 4, 3];

%%Position Constraints:
%numberPositionConstraints=2;

%%Total Fixtures:
%totalFixtures=38;

%%Fixtures to Play:
%fixturesToPlay=18;

%%Position Constraints Built With
%wantedPoints=[3, 3, 1, 0, 0, 0, 1, 1, 3, 1, 1, 0, 3, 0, 0, 1, 1, 3, 0, 1, 0, 3, 1, 0, 1, 1, 3, 0, 1, 3, 0, 3, 1, 3, 3, 1, 3, 0, 3, 0, 1, 3, 3, 0, 3, 0, 3, 3, 0, 3, 0, 0, 3, 1, 1, 3, 0, 0, 3, 0, 0, 0, 1, 3, 1, 3, 1, 3, 3, 3, 0, 1, 0, 0, 0, 0, 3, 1, 3, 0, 3, 3, 0, 0, 1, 1, 3, 0, 3, 3, 3, 1, 0, 3, 1, 1, 1, 3, 0, 1, 3, 3, 1, 0, 0, 1, 1, 0, 1, 3, 1, 0, 0, 0, 3, 0, 3, 1, 0, 1, 0, 3, 0, 3, 3, 0, 3, 1, 0, 0, 3, 3, 3, 0, 3, 3, 0, 0, 0, 0, 1, 3, 0, 0, 3, 1, 1, 1, 0, 0, 1, 3, 1, 1, 0, 0, 0, 3, 1, 0, 3, 1, 3, 1, 1, 0, 0, 0, 3, 1, 1, 0, 1, 1, 1, 1, 1, 0, 0, 1];

%%Probabilities:
probabilities=[|66,15,0,19,|83,15,0,2,|78,1,0,21,|32,48,0,20,|51,23,0,26,|4,65,0,31,|43,28,0,29,|78,16,0,6,|68,22,0,10,|68,7,0,25,|75,13,0,12,|96,2,0,2,|2,55,0,43,|22,65,0,13,|31,46,0,23,|17,25,0,58,|66,4,0,30,|59,2,0,39,|12,41,0,47,|2,34,0,64,|54,6,0,40,|28,4,0,68,|36,34,0,30,|84,12,0,4,|43,48,0,9,|53,8,0,39,|19,41,0,40,|27,26,0,47,|43,40,0,17,|69,26,0,5,|57,24,0,19,|84,13,0,3,|12,50,0,38,|31,3,0,66,|77,9,0,14,|64,11,0,25,|12,76,0,12,|83,10,0,7,|21,10,0,69,|75,24,0,1,|39,26,0,35,|49,6,0,45,|44,25,0,31,|3,20,0,77,|91,3,0,6,|17,47,0,36,|71,2,0,27,|39,59,0,2,|42,17,0,41,|13,12,0,75,|54,34,0,12,|64,4,0,32,|33,9,0,58,|1,13,0,86,|94,2,0,4,|77,22,0,1,|65,18,0,17,|98,2,0,0,|81,13,0,6,|22,6,0,72,|26,11,0,63,|15,71,0,14,|74,0,0,26,|36,15,0,49,|16,32,0,52,|70,9,0,21,|38,12,0,50,|61,9,0,30,|65,1,0,34,|15,46,0,39,|4,37,0,59,|43,51,0,6,|62,24,0,14,|65,23,0,12,|74,6,0,20,|19,36,0,45,|85,9,0,6,|48,50,0,2,|4,43,0,53,|65,26,0,9,|49,9,0,42,|17,79,0,4,|66,5,0,29,|7,36,0,57,|22,42,0,36,|64,32,0,4,|15,65,0,20,|92,0,0,8,|65,34,0,1,|88,6,0,6,|75,13,0,12,|72,6,0,22,|63,37,0,0,|24,60,0,16,|22,71,0,7,|18,59,0,23,|47,21,0,32,|87,11,0,2,|90,7,0,3,|41,45,0,14,|62,29,0,9,|52,14,0,34,|8,9,0,83,|27,66,0,7,|89,10,0,1,|99,0,0,1,|78,20,0,2,|34,34,0,32,|100,0,0,0,|93,0,0,7,|76,16,0,8,|91,7,0,2,|22,77,0,1,|76,20,0,4,|78,9,0,13,|58,20,0,22,|3,71,0,26,|50,2,0,48,|83,14,0,3,|79,12,0,9,|22,40,0,38,|94,5,0,1,|34,39,0,27,|60,6,0,34,|1,0,0,99,|38,18,0,44,|77,16,0,7,|65,20,0,15,|72,19,0,9,|87,0,0,13,|62,10,0,28,|12,19,0,69,|80,18,0,2,|60,23,0,17,|37,0,0,63,|4,2,0,94,|96,4,0,0,|92,2,0,6,|59,26,0,15,|43,3,0,54,|14,61,0,25,|87,0,0,13,|48,39,0,13,|27,21,0,52,|69,10,0,21,|13,49,0,38,|42,1,0,57,|5,89,0,6,|65,4,0,31,|46,1,0,53,|41,58,0,1,|30,61,0,9,|59,17,0,24,|3,10,0,87,|60,20,0,20,|27,37,0,36,|55,42,0,3,|79,11,0,10,|30,22,0,48,|94,5,0,1,|66,3,0,31,|56,6,0,38,|65,29,0,6,|72,11,0,17,|65,24,0,11,|82,7,0,11,|47,29,0,24,|62,34,0,4,|74,1,0,25,|28,11,0,61,|18,81,0,1,|40,2,0,58,|17,67,0,16,|60,15,0,25,|84,1,0,15,|83,6,0,11,|16,40,0,44,|3,13,0,84,|50,38,0,12,|74,11,0,15,|];


%POSITION CONSTRAINTS
%%[|teamID, operator, position|...]
%%operators index:
%%%1 for =  operator
%%%2 for >  operator
%%%3 for >= operator
%%%4 for <  operator
%%%5 for <= operator

positionConstraints=[|19,1,4|10,1,1|];

%SCORE VECTOR CONSTRAINTS
%%[|teamID, operator, wantedPoints|...]
%%operators index:
%%%1 for =  operator
%%%2 for >  operator
%%%3 for >= operator
%%%4 for <  operator
%%%5 for <= operator

%scoreVectorConstraints=[|19,1,56|10,1,77|];

%Instance Features:
%features=T,FP,TF,C,C/T,C/TF,FP/TF,FP/T,FP*C/T,FP*T/C,(C/T)*(FP/TF),Distance,Distance/C,Distance/T,Distance/(C*T)
%values=20,18,38,2,0.1,0.05263157894736842,0.4736842105263158,0.9,1.8,180.0,0.04736842105263158,0,0.0,0.0,0.0



